k = 26;
b = 13;
AtomicConstraints =  [|
3, 1|
	4, 1|
	4, 2|
	5, 11|
	5, 12|
	5, 13|
	6, 11|
	6, 12|
	6, 13|
	7, 11|
	7, 12|
	7, 13|
	8, 1|
	8, 2|
	8, 11|
	9, 1|
	9, 2|
	9, 11|
	9, 12|
	10, 1|
	10, 2|
	10, 11|
	10, 12|
	10, 13|
	14, 19|
	14, 18|
	16, 19|
	16, 18|
	16, 20|
	15, 19|
	15, 18|
	15, 20|
	17, 18|
	17, 20|
	17, 22|
	23, 20|
	23, 22|
	23, 25|
	26, 22|
	26, 25|
	26, 21|
	26, 24|];
DisjunctiveConstraints =  [|3, 1, 3, 14|
	4, 2, 4, 15|
	6, 7, 6, 5|
	8, 11, 8, 24|
	8, 12, 25, 8|
	9, 10, 9, 8|
	9, 13, 26, 9|
	9, 25, 9, 12|
	10, 13, 10, 26|
	12, 13, 12, 11|
	18, 20, 18, 19|
	20, 22, 20, 18|
	22, 25, 22, 20|
	25, 21, 25, 22|
	21, 24, 21, 25|
	16, 15, 16, 14|
	15, 17, 15, 16|
	17, 23, 17, 15|
	23, 26, 23, 17|];
SoftAtomicConstraints =  [|
2, 1|
4, 3|
6, 5|
7, 6|
9, 8|
10, 9|
5, 10|
12, 11|
13, 12|
16, 14|
17, 15|
15, 16|
23, 17|
20, 18|
18, 19|
22, 20|
24, 21|
25, 22|
26, 23|
21, 25|];
DirectSuccessors =  [];
